c This is UnifRandomKSATGenerator
c uniform random 3-SAT generated instance with: 
c clause length: 3 
c number variables: 20 
c number clauses: 85 
c clause to variable ratio: 4.27 
c random number generator name: SHA1PRNG 
c random number generator provider: SUN 
c random number generator seed: 3597173993371513116 
p cnf 20 85
-3 -20 19 0
8 -1 3 0
10 5 7 0
9 11 6 0
-11 -12 13 0
16 -10 -7 0
1 20 -6 0
16 8 -19 0
-18 2 11 0
8 9 -3 0
2 -14 15 0
10 2 11 0
17 -4 6 0
9 -10 -12 0
8 20 14 0
-9 -4 20 0
-18 11 3 0
-19 2 -7 0
-2 -11 -13 0
-13 5 15 0
-1 13 -16 0
-1 5 6 0
1 10 -7 0
-9 14 -16 0
17 20 5 0
16 9 1 0
19 3 13 0
-9 17 -16 0
-19 -14 -8 0
-3 -6 -15 0
10 18 -15 0
1 -20 -16 0
8 -6 -15 0
-2 12 13 0
-1 19 14 0
-12 20 -8 0
-18 20 13 0
1 6 -16 0
1 -20 13 0
17 20 -8 0
-17 19 7 0
-11 10 3 0
-9 -17 4 0
-11 3 14 0
-3 13 -14 0
-5 -7 6 0
1 18 11 0
11 -5 -7 0
14 -15 -16 0
16 -7 -8 0
-17 -7 -8 0
-19 -12 -7 0
-17 -13 -16 0
-18 20 14 0
17 -10 6 0
12 20 -7 0
3 -14 -16 0
2 6 7 0
8 -12 -15 0
-2 10 -6 0
-17 9 -16 0
-9 10 -8 0
-12 14 -15 0
18 -11 -4 0
-17 -3 -15 0
19 -14 7 0
1 -5 6 0
-9 8 -14 0
2 11 7 0
-11 -19 15 0
-17 10 -15 0
-9 1 20 0
20 -5 -8 0
-17 10 12 0
-17 -18 19 0
-17 -18 20 0
12 -15 6 0
2 -5 6 0
1 6 7 0
9 -2 -7 0
16 -4 -12 0
-18 13 -16 0
-1 4 -15 0
-17 3 -13 0
-9 5 -15 0
